p cnf 3100
1045
-13 1
-13 2
-1 -2 13
-14 1
-14 3
-1 -3 14
-15 1
-15 4
-1 -4 15
-16 2
-16 3
-2 -3 16
-17 2
-17 4
-2 -4 17
-18 -2
-18 14
2 -14 18
-19 2
-19 -14
-2 14 19
-20 -18
-20 -19
18 19 20
-21 2
-21 14
-2 -14 21
-22 -13
-22 -20
13 20 22
-23 13
-23 20
-13 -20 23
-24 -22
-24 -23
22 23 24
-25 13
-25 -20
-13 20 25
-26 -21
-26 -25
21 25 26
-27 15
-27 -16
-15 16 27
-28 -15
-28 16
15 -16 28
-29 -27
-29 -28
27 28 29
-30 15
-30 16
-15 -16 30
-31 26
-31 -29
-26 29 31
-32 -26
-32 29
26 -29 32
-33 -31
-33 -32
31 32 33
-34 -26
-34 -29
26 29 34
-35 -30
-35 -34
30 34 35
-36 17
-36 35
-17 -35 36
-37 -17
-37 -35
17 35 37
-38 -36
-38 -37
36 37 38
-39 17
-39 -35
-17 35 39
-40 3
-40 4
-3 -4 40
-41 -14
-41 -24
14 24 41
-42 14
-42 24
-14 -24 42
-43 -41
-43 -42
41 42 43
-44 14
-44 -24
-14 24 44
-45 -16
-45 -33
16 33 45
-46 16
-46 33
-16 -33 46
-47 -45
-47 -46
45 46 47
-48 16
-48 -33
-16 33 48
-49 -44
-49 -47
44 47 49
-50 44
-50 47
-44 -47 50
-51 -49
-51 -50
49 50 51
-52 44
-52 -47
-44 47 52
-53 -48
-53 -52
48 52 53
-54 -3
-54 -38
3 38 54
-55 3
-55 38
-3 -38 55
-56 -54
-56 -55
54 55 56
-57 3
-57 -38
-3 38 57
-58 53
-58 -56
-53 56 58
-59 -53
-59 56
53 -56 59
-60 -58
-60 -59
58 59 60
-61 -53
-61 -56
53 56 61
-62 -57
-62 -61
57 61 62
-63 39
-63 -40
-39 40 63
-64 -39
-64 40
39 -40 64
-65 -63
-65 -64
63 64 65
-66 39
-66 40
-39 -40 66
-67 62
-67 -65
-62 65 67
-68 -62
-68 65
62 -65 68
-69 -67
-69 -68
67 68 69
-70 -62
-70 -65
62 65 70
-71 -66
-71 -70
66 70 71
-72 -15
-72 -51
15 51 72
-73 15
-73 51
-15 -51 73
-74 -72
-74 -73
72 73 74
-75 15
-75 -51
-15 51 75
-76 -17
-76 -60
17 60 76
-77 17
-77 60
-17 -60 77
-78 -76
-78 -77
76 77 78
-79 17
-79 -60
-17 60 79
-80 -75
-80 -78
75 78 80
-81 75
-81 78
-75 -78 81
-82 -80
-82 -81
80 81 82
-83 75
-83 -78
-75 78 83
-84 -79
-84 -83
79 83 84
-85 -40
-85 -69
40 69 85
-86 40
-86 69
-40 -69 86
-87 -85
-87 -86
85 86 87
-88 40
-88 -69
-40 69 88
-89 84
-89 -87
-84 87 89
-90 -84
-90 87
84 -87 90
-91 -89
-91 -90
89 90 91
-92 -84
-92 -87
84 87 92
-93 -88
-93 -92
88 92 93
-94 -4
-94 -71
4 71 94
-95 4
-95 71
-4 -71 95
-96 -94
-96 -95
94 95 96
-97 4
-97 -71
-4 71 97
-98 93
-98 -96
-93 96 98
-99 -93
-99 96
93 -96 99
-100 -98
-100 -99
98 99 100
-101 -93
-101 -96
93 96 101
-102 -97
-102 -101
97 101 102
-103 1
-103 -43
-1 43 103
-104 2
-104 -43
-2 43 104
-105 3
-105 -43
-3 43 105
-106 4
-106 -43
-4 43 106
-107 14
-107 -103
-14 103 107
-108 -14
-108 103
14 -103 108
-109 -107
-109 -108
107 108 109
-110 14
-110 103
-14 -103 110
-111 15
-111 -104
-15 104 111
-112 -15
-112 104
15 -104 112
-113 -111
-113 -112
111 112 113
-114 15
-114 104
-15 -104 114
-115 -110
-115 -113
110 113 115
-116 110
-116 113
-110 -113 116
-117 -115
-117 -116
115 116 117
-118 110
-118 -113
-110 113 118
-119 -114
-119 -118
114 118 119
-120 105
-120 119
-105 -119 120
-121 -105
-121 -119
105 119 121
-122 -120
-122 -121
120 121 122
-123 105
-123 -119
-105 119 123
-124 106
-124 -123
-106 123 124
-125 -106
-125 123
106 -123 125
-126 -124
-126 -125
124 125 126
-127 106
-127 123
-106 -123 127
-128 1
-128 -74
-1 74 128
-129 2
-129 -74
-2 74 129
-130 3
-130 -74
-3 74 130
-131 4
-131 -74
-4 74 131
-132 -117
-132 -128
117 128 132
-133 117
-133 128
-117 -128 133
-134 -132
-134 -133
132 133 134
-135 -117
-135 128
117 -128 135
-136 -122
-136 -129
122 129 136
-137 122
-137 129
-122 -129 137
-138 -136
-138 -137
136 137 138
-139 -122
-139 129
122 -129 139
-140 -135
-140 -138
135 138 140
-141 135
-141 138
-135 -138 141
-142 -140
-142 -141
140 141 142
-143 135
-143 -138
-135 138 143
-144 -139
-144 -143
139 143 144
-145 -126
-145 -130
126 130 145
-146 126
-146 130
-126 -130 146
-147 -145
-147 -146
145 146 147
-148 -126
-148 130
126 -130 148
-149 144
-149 -147
-144 147 149
-150 -144
-150 147
144 -147 150
-151 -149
-151 -150
149 150 151
-152 -144
-152 -147
144 147 152
-153 -148
-153 -152
148 152 153
-154 127
-154 -131
-127 131 154
-155 -127
-155 131
127 -131 155
-156 -154
-156 -155
154 155 156
-157 127
-157 131
-127 -131 157
-158 153
-158 -156
-153 156 158
-159 -153
-159 156
153 -156 159
-160 -158
-160 -159
158 159 160
-161 -153
-161 -156
153 156 161
-162 -157
-162 -161
157 161 162
-163 1
-163 -82
-1 82 163
-164 2
-164 -82
-2 82 164
-165 3
-165 -82
-3 82 165
-166 4
-166 -82
-4 82 166
-167 -142
-167 -163
142 163 167
-168 142
-168 163
-142 -163 168
-169 -167
-169 -168
167 168 169
-170 -142
-170 163
142 -163 170
-171 -151
-171 -164
151 164 171
-172 151
-172 164
-151 -164 172
-173 -171
-173 -172
171 172 173
-174 -151
-174 164
151 -164 174
-175 -170
-175 -173
170 173 175
-176 170
-176 173
-170 -173 176
-177 -175
-177 -176
175 176 177
-178 170
-178 -173
-170 173 178
-179 -174
-179 -178
174 178 179
-180 -160
-180 -165
160 165 180
-181 160
-181 165
-160 -165 181
-182 -180
-182 -181
180 181 182
-183 -160
-183 165
160 -165 183
-184 179
-184 -182
-179 182 184
-185 -179
-185 182
179 -182 185
-186 -184
-186 -185
184 185 186
-187 -179
-187 -182
179 182 187
-188 -183
-188 -187
183 187 188
-189 -162
-189 -166
162 166 189
-190 162
-190 166
-162 -166 190
-191 -189
-191 -190
189 190 191
-192 -162
-192 166
162 -166 192
-193 188
-193 -191
-188 191 193
-194 -188
-194 191
188 -191 194
-195 -193
-195 -194
193 194 195
-196 -188
-196 -191
188 191 196
-197 -192
-197 -196
192 196 197
-198 1
-198 -91
-1 91 198
-199 2
-199 -91
-2 91 199
-200 3
-200 -91
-3 91 200
-201 4
-201 -91
-4 91 201
-202 -177
-202 -198
177 198 202
-203 177
-203 198
-177 -198 203
-204 -202
-204 -203
202 203 204
-205 -177
-205 198
177 -198 205
-206 -186
-206 -199
186 199 206
-207 186
-207 199
-186 -199 207
-208 -206
-208 -207
206 207 208
-209 -186
-209 199
186 -199 209
-210 -205
-210 -208
205 208 210
-211 205
-211 208
-205 -208 211
-212 -210
-212 -211
210 211 212
-213 205
-213 -208
-205 208 213
-214 -209
-214 -213
209 213 214
-215 -195
-215 -200
195 200 215
-216 195
-216 200
-195 -200 216
-217 -215
-217 -216
215 216 217
-218 -195
-218 200
195 -200 218
-219 214
-219 -217
-214 217 219
-220 -214
-220 217
214 -217 220
-221 -219
-221 -220
219 220 221
-222 -214
-222 -217
214 217 222
-223 -218
-223 -222
218 222 223
-224 -197
-224 -201
197 201 224
-225 197
-225 201
-197 -201 225
-226 -224
-226 -225
224 225 226
-227 -197
-227 201
197 -201 227
-228 223
-228 -226
-223 226 228
-229 -223
-229 226
223 -226 229
-230 -228
-230 -229
228 229 230
-231 -223
-231 -226
223 226 231
-232 -227
-232 -231
227 231 232
-233 1
-233 -100
-1 100 233
-234 2
-234 -100
-2 100 234
-235 3
-235 -100
-3 100 235
-236 4
-236 -100
-4 100 236
-237 -212
-237 -233
212 233 237
-238 212
-238 233
-212 -233 238
-239 -237
-239 -238
237 238 239
-240 -212
-240 233
212 -233 240
-241 -221
-241 -234
221 234 241
-242 221
-242 234
-221 -234 242
-243 -241
-243 -242
241 242 243
-244 -221
-244 234
221 -234 244
-245 -240
-245 -243
240 243 245
-246 240
-246 243
-240 -243 246
-247 -245
-247 -246
245 246 247
-248 240
-248 -243
-240 243 248
-249 -244
-249 -248
244 248 249
-250 -230
-250 -235
230 235 250
-251 230
-251 235
-230 -235 251
-252 -250
-252 -251
250 251 252
-253 -230
-253 235
230 -235 253
-254 249
-254 -252
-249 252 254
-255 -249
-255 252
249 -252 255
-256 -254
-256 -255
254 255 256
-257 -249
-257 -252
249 252 257
-258 -253
-258 -257
253 257 258
-259 -232
-259 -236
232 236 259
-260 232
-260 236
-232 -236 260
-261 -259
-261 -260
259 260 261
-262 -232
-262 236
232 -236 262
-263 258
-263 -261
-258 261 263
-264 -258
-264 261
258 -261 264
-265 -263
-265 -264
263 264 265
-266 -258
-266 -261
258 261 266
-267 -262
-267 -266
262 266 267
-268 1
-268 -102
-1 102 268
-269 2
-269 -102
-2 102 269
-270 3
-270 -102
-3 102 270
-271 4
-271 -102
-4 102 271
-272 -247
-272 -268
247 268 272
-273 247
-273 268
-247 -268 273
-274 -272
-274 -273
272 273 274
-275 -247
-275 268
247 -268 275
-276 -256
-276 -269
256 269 276
-277 256
-277 269
-256 -269 277
-278 -276
-278 -277
276 277 278
-279 -256
-279 269
256 -269 279
-280 -275
-280 -278
275 278 280
-281 275
-281 278
-275 -278 281
-282 -280
-282 -281
280 281 282
-283 275
-283 -278
-275 278 283
-284 -279
-284 -283
279 283 284
-285 -265
-285 -270
265 270 285
-286 265
-286 270
-265 -270 286
-287 -285
-287 -286
285 286 287
-288 -265
-288 270
265 -270 288
-289 284
-289 -287
-284 287 289
-290 -284
-290 287
284 -287 290
-291 -289
-291 -290
289 290 291
-292 -284
-292 -287
284 287 292
-293 -288
-293 -292
288 292 293
-294 -267
-294 -271
267 271 294
-295 267
-295 271
-267 -271 295
-296 -294
-296 -295
294 295 296
-297 -267
-297 271
267 -271 297
-298 293
-298 -296
-293 296 298
-299 -293
-299 296
293 -296 299
-300 -298
-300 -299
298 299 300
-301 -293
-301 -296
293 296 301
-302 -297
-302 -301
297 301 302
-303 5
-303 6
-5 -6 303
-304 5
-304 7
-5 -7 304
-305 5
-305 8
-5 -8 305
-306 6
-306 7
-6 -7 306
-307 6
-307 8
-6 -8 307
-308 -6
-308 304
6 -304 308
-309 6
-309 -304
-6 304 309
-310 -308
-310 -309
308 309 310
-311 6
-311 304
-6 -304 311
-312 -303
-312 -310
303 310 312
-313 303
-313 310
-303 -310 313
-314 -312
-314 -313
312 313 314
-315 303
-315 -310
-303 310 315
-316 -311
-316 -315
311 315 316
-317 305
-317 -306
-305 306 317
-318 -305
-318 306
305 -306 318
-319 -317
-319 -318
317 318 319
-320 305
-320 306
-305 -306 320
-321 316
-321 -319
-316 319 321
-322 -316
-322 319
316 -319 322
-323 -321
-323 -322
321 322 323
-324 -316
-324 -319
316 319 324
-325 -320
-325 -324
320 324 325
-326 307
-326 325
-307 -325 326
-327 -307
-327 -325
307 325 327
-328 -326
-328 -327
326 327 328
-329 307
-329 -325
-307 325 329
-330 7
-330 8
-7 -8 330
-331 -304
-331 -314
304 314 331
-332 304
-332 314
-304 -314 332
-333 -331
-333 -332
331 332 333
-334 304
-334 -314
-304 314 334
-335 -306
-335 -323
306 323 335
-336 306
-336 323
-306 -323 336
-337 -335
-337 -336
335 336 337
-338 306
-338 -323
-306 323 338
-339 -334
-339 -337
334 337 339
-340 334
-340 337
-334 -337 340
-341 -339
-341 -340
339 340 341
-342 334
-342 -337
-334 337 342
-343 -338
-343 -342
338 342 343
-344 -7
-344 -328
7 328 344
-345 7
-345 328
-7 -328 345
-346 -344
-346 -345
344 345 346
-347 7
-347 -328
-7 328 347
-348 343
-348 -346
-343 346 348
-349 -343
-349 346
343 -346 349
-350 -348
-350 -349
348 349 350
-351 -343
-351 -346
343 346 351
-352 -347
-352 -351
347 351 352
-353 329
-353 -330
-329 330 353
-354 -329
-354 330
329 -330 354
-355 -353
-355 -354
353 354 355
-356 329
-356 330
-329 -330 356
-357 352
-357 -355
-352 355 357
-358 -352
-358 355
352 -355 358
-359 -357
-359 -358
357 358 359
-360 -352
-360 -355
352 355 360
-361 -356
-361 -360
356 360 361
-362 -305
-362 -341
305 341 362
-363 305
-363 341
-305 -341 363
-364 -362
-364 -363
362 363 364
-365 305
-365 -341
-305 341 365
-366 -307
-366 -350
307 350 366
-367 307
-367 350
-307 -350 367
-368 -366
-368 -367
366 367 368
-369 307
-369 -350
-307 350 369
-370 -365
-370 -368
365 368 370
-371 365
-371 368
-365 -368 371
-372 -370
-372 -371
370 371 372
-373 365
-373 -368
-365 368 373
-374 -369
-374 -373
369 373 374
-375 -330
-375 -359
330 359 375
-376 330
-376 359
-330 -359 376
-377 -375
-377 -376
375 376 377
-378 330
-378 -359
-330 359 378
-379 374
-379 -377
-374 377 379
-380 -374
-380 377
374 -377 380
-381 -379
-381 -380
379 380 381
-382 -374
-382 -377
374 377 382
-383 -378
-383 -382
378 382 383
-384 -8
-384 -361
8 361 384
-385 8
-385 361
-8 -361 385
-386 -384
-386 -385
384 385 386
-387 8
-387 -361
-8 361 387
-388 383
-388 -386
-383 386 388
-389 -383
-389 386
383 -386 389
-390 -388
-390 -389
388 389 390
-391 -383
-391 -386
383 386 391
-392 -387
-392 -391
387 391 392
-393 5
-393 -333
-5 333 393
-394 6
-394 -333
-6 333 394
-395 7
-395 -333
-7 333 395
-396 8
-396 -333
-8 333 396
-397 304
-397 -393
-304 393 397
-398 -304
-398 393
304 -393 398
-399 -397
-399 -398
397 398 399
-400 304
-400 393
-304 -393 400
-401 305
-401 -394
-305 394 401
-402 -305
-402 394
305 -394 402
-403 -401
-403 -402
401 402 403
-404 305
-404 394
-305 -394 404
-405 -400
-405 -403
400 403 405
-406 400
-406 403
-400 -403 406
-407 -405
-407 -406
405 406 407
-408 400
-408 -403
-400 403 408
-409 -404
-409 -408
404 408 409
-410 395
-410 409
-395 -409 410
-411 -395
-411 -409
395 409 411
-412 -410
-412 -411
410 411 412
-413 395
-413 -409
-395 409 413
-414 396
-414 -413
-396 413 414
-415 -396
-415 413
396 -413 415
-416 -414
-416 -415
414 415 416
-417 396
-417 413
-396 -413 417
-418 5
-418 -364
-5 364 418
-419 6
-419 -364
-6 364 419
-420 7
-420 -364
-7 364 420
-421 8
-421 -364
-8 364 421
-422 -407
-422 -418
407 418 422
-423 407
-423 418
-407 -418 423
-424 -422
-424 -423
422 423 424
-425 -407
-425 418
407 -418 425
-426 -412
-426 -419
412 419 426
-427 412
-427 419
-412 -419 427
-428 -426
-428 -427
426 427 428
-429 -412
-429 419
412 -419 429
-430 -425
-430 -428
425 428 430
-431 425
-431 428
-425 -428 431
-432 -430
-432 -431
430 431 432
-433 425
-433 -428
-425 428 433
-434 -429
-434 -433
429 433 434
-435 -416
-435 -420
416 420 435
-436 416
-436 420
-416 -420 436
-437 -435
-437 -436
435 436 437
-438 -416
-438 420
416 -420 438
-439 434
-439 -437
-434 437 439
-440 -434
-440 437
434 -437 440
-441 -439
-441 -440
439 440 441
-442 -434
-442 -437
434 437 442
-443 -438
-443 -442
438 442 443
-444 417
-444 -421
-417 421 444
-445 -417
-445 421
417 -421 445
-446 -444
-446 -445
444 445 446
-447 417
-447 421
-417 -421 447
-448 443
-448 -446
-443 446 448
-449 -443
-449 446
443 -446 449
-450 -448
-450 -449
448 449 450
-451 -443
-451 -446
443 446 451
-452 -447
-452 -451
447 451 452
-453 5
-453 -372
-5 372 453
-454 6
-454 -372
-6 372 454
-455 7
-455 -372
-7 372 455
-456 8
-456 -372
-8 372 456
-457 -432
-457 -453
432 453 457
-458 432
-458 453
-432 -453 458
-459 -457
-459 -458
457 458 459
-460 -432
-460 453
432 -453 460
-461 -441
-461 -454
441 454 461
-462 441
-462 454
-441 -454 462
-463 -461
-463 -462
461 462 463
-464 -441
-464 454
441 -454 464
-465 -460
-465 -463
460 463 465
-466 460
-466 463
-460 -463 466
-467 -465
-467 -466
465 466 467
-468 460
-468 -463
-460 463 468
-469 -464
-469 -468
464 468 469
-470 -450
-470 -455
450 455 470
-471 450
-471 455
-450 -455 471
-472 -470
-472 -471
470 471 472
-473 -450
-473 455
450 -455 473
-474 469
-474 -472
-469 472 474
-475 -469
-475 472
469 -472 475
-476 -474
-476 -475
474 475 476
-477 -469
-477 -472
469 472 477
-478 -473
-478 -477
473 477 478
-479 -452
-479 -456
452 456 479
-480 452
-480 456
-452 -456 480
-481 -479
-481 -480
479 480 481
-482 -452
-482 456
452 -456 482
-483 478
-483 -481
-478 481 483
-484 -478
-484 481
478 -481 484
-485 -483
-485 -484
483 484 485
-486 -478
-486 -481
478 481 486
-487 -482
-487 -486
482 486 487
-488 5
-488 -381
-5 381 488
-489 6
-489 -381
-6 381 489
-490 7
-490 -381
-7 381 490
-491 8
-491 -381
-8 381 491
-492 -467
-492 -488
467 488 492
-493 467
-493 488
-467 -488 493
-494 -492
-494 -493
492 493 494
-495 -467
-495 488
467 -488 495
-496 -476
-496 -489
476 489 496
-497 476
-497 489
-476 -489 497
-498 -496
-498 -497
496 497 498
-499 -476
-499 489
476 -489 499
-500 -495
-500 -498
495 498 500
-501 495
-501 498
-495 -498 501
-502 -500
-502 -501
500 501 502
-503 495
-503 -498
-495 498 503
-504 -499
-504 -503
499 503 504
-505 -485
-505 -490
485 490 505
-506 485
-506 490
-485 -490 506
-507 -505
-507 -506
505 506 507
-508 -485
-508 490
485 -490 508
-509 504
-509 -507
-504 507 509
-510 -504
-510 507
504 -507 510
-511 -509
-511 -510
509 510 511
-512 -504
-512 -507
504 507 512
-513 -508
-513 -512
508 512 513
-514 -487
-514 -491
487 491 514
-515 487
-515 491
-487 -491 515
-516 -514
-516 -515
514 515 516
-517 -487
-517 491
487 -491 517
-518 513
-518 -516
-513 516 518
-519 -513
-519 516
513 -516 519
-520 -518
-520 -519
518 519 520
-521 -513
-521 -516
513 516 521
-522 -517
-522 -521
517 521 522
-523 5
-523 -390
-5 390 523
-524 6
-524 -390
-6 390 524
-525 7
-525 -390
-7 390 525
-526 8
-526 -390
-8 390 526
-527 -502
-527 -523
502 523 527
-528 502
-528 523
-502 -523 528
-529 -527
-529 -528
527 528 529
-530 -502
-530 523
502 -523 530
-531 -511
-531 -524
511 524 531
-532 511
-532 524
-511 -524 532
-533 -531
-533 -532
531 532 533
-534 -511
-534 524
511 -524 534
-535 -530
-535 -533
530 533 535
-536 530
-536 533
-530 -533 536
-537 -535
-537 -536
535 536 537
-538 530
-538 -533
-530 533 538
-539 -534
-539 -538
534 538 539
-540 -520
-540 -525
520 525 540
-541 520
-541 525
-520 -525 541
-542 -540
-542 -541
540 541 542
-543 -520
-543 525
520 -525 543
-544 539
-544 -542
-539 542 544
-545 -539
-545 542
539 -542 545
-546 -544
-546 -545
544 545 546
-547 -539
-547 -542
539 542 547
-548 -543
-548 -547
543 547 548
-549 -522
-549 -526
522 526 549
-550 522
-550 526
-522 -526 550
-551 -549
-551 -550
549 550 551
-552 -522
-552 526
522 -526 552
-553 548
-553 -551
-548 551 553
-554 -548
-554 551
548 -551 554
-555 -553
-555 -554
553 554 555
-556 -548
-556 -551
548 551 556
-557 -552
-557 -556
552 556 557
-558 5
-558 -392
-5 392 558
-559 6
-559 -392
-6 392 559
-560 7
-560 -392
-7 392 560
-561 8
-561 -392
-8 392 561
-562 -537
-562 -558
537 558 562
-563 537
-563 558
-537 -558 563
-564 -562
-564 -563
562 563 564
-565 -537
-565 558
537 -558 565
-566 -546
-566 -559
546 559 566
-567 546
-567 559
-546 -559 567
-568 -566
-568 -567
566 567 568
-569 -546
-569 559
546 -559 569
-570 -565
-570 -568
565 568 570
-571 565
-571 568
-565 -568 571
-572 -570
-572 -571
570 571 572
-573 565
-573 -568
-565 568 573
-574 -569
-574 -573
569 573 574
-575 -555
-575 -560
555 560 575
-576 555
-576 560
-555 -560 576
-577 -575
-577 -576
575 576 577
-578 -555
-578 560
555 -560 578
-579 574
-579 -577
-574 577 579
-580 -574
-580 577
574 -577 580
-581 -579
-581 -580
579 580 581
-582 -574
-582 -577
574 577 582
-583 -578
-583 -582
578 582 583
-584 -557
-584 -561
557 561 584
-585 557
-585 561
-557 -561 585
-586 -584
-586 -585
584 585 586
-587 -557
-587 561
557 -561 587
-588 583
-588 -586
-583 586 588
-589 -583
-589 586
583 -586 589
-590 -588
-590 -589
588 589 590
-591 -583
-591 -586
583 586 591
-592 -587
-592 -591
587 591 592
-593 9
-593 10
-9 -10 593
-594 9
-594 11
-9 -11 594
-595 9
-595 12
-9 -12 595
-596 10
-596 11
-10 -11 596
-597 10
-597 12
-10 -12 597
-598 -10
-598 594
10 -594 598
-599 10
-599 -594
-10 594 599
-600 -598
-600 -599
598 599 600
-601 10
-601 594
-10 -594 601
-602 -593
-602 -600
593 600 602
-603 593
-603 600
-593 -600 603
-604 -602
-604 -603
602 603 604
-605 593
-605 -600
-593 600 605
-606 -601
-606 -605
601 605 606
-607 595
-607 -596
-595 596 607
-608 -595
-608 596
595 -596 608
-609 -607
-609 -608
607 608 609
-610 595
-610 596
-595 -596 610
-611 606
-611 -609
-606 609 611
-612 -606
-612 609
606 -609 612
-613 -611
-613 -612
611 612 613
-614 -606
-614 -609
606 609 614
-615 -610
-615 -614
610 614 615
-616 597
-616 615
-597 -615 616
-617 -597
-617 -615
597 615 617
-618 -616
-618 -617
616 617 618
-619 597
-619 -615
-597 615 619
-620 11
-620 12
-11 -12 620
-621 -594
-621 -604
594 604 621
-622 594
-622 604
-594 -604 622
-623 -621
-623 -622
621 622 623
-624 594
-624 -604
-594 604 624
-625 -596
-625 -613
596 613 625
-626 596
-626 613
-596 -613 626
-627 -625
-627 -626
625 626 627
-628 596
-628 -613
-596 613 628
-629 -624
-629 -627
624 627 629
-630 624
-630 627
-624 -627 630
-631 -629
-631 -630
629 630 631
-632 624
-632 -627
-624 627 632
-633 -628
-633 -632
628 632 633
-634 -11
-634 -618
11 618 634
-635 11
-635 618
-11 -618 635
-636 -634
-636 -635
634 635 636
-637 11
-637 -618
-11 618 637
-638 633
-638 -636
-633 636 638
-639 -633
-639 636
633 -636 639
-640 -638
-640 -639
638 639 640
-641 -633
-641 -636
633 636 641
-642 -637
-642 -641
637 641 642
-643 619
-643 -620
-619 620 643
-644 -619
-644 620
619 -620 644
-645 -643
-645 -644
643 644 645
-646 619
-646 620
-619 -620 646
-647 642
-647 -645
-642 645 647
-648 -642
-648 645
642 -645 648
-649 -647
-649 -648
647 648 649
-650 -642
-650 -645
642 645 650
-651 -646
-651 -650
646 650 651
-652 -595
-652 -631
595 631 652
-653 595
-653 631
-595 -631 653
-654 -652
-654 -653
652 653 654
-655 595
-655 -631
-595 631 655
-656 -597
-656 -640
597 640 656
-657 597
-657 640
-597 -640 657
-658 -656
-658 -657
656 657 658
-659 597
-659 -640
-597 640 659
-660 -655
-660 -658
655 658 660
-661 655
-661 658
-655 -658 661
-662 -660
-662 -661
660 661 662
-663 655
-663 -658
-655 658 663
-664 -659
-664 -663
659 663 664
-665 -620
-665 -649
620 649 665
-666 620
-666 649
-620 -649 666
-667 -665
-667 -666
665 666 667
-668 620
-668 -649
-620 649 668
-669 664
-669 -667
-664 667 669
-670 -664
-670 667
664 -667 670
-671 -669
-671 -670
669 670 671
-672 -664
-672 -667
664 667 672
-673 -668
-673 -672
668 672 673
-674 -12
-674 -651
12 651 674
-675 12
-675 651
-12 -651 675
-676 -674
-676 -675
674 675 676
-677 12
-677 -651
-12 651 677
-678 673
-678 -676
-673 676 678
-679 -673
-679 676
673 -676 679
-680 -678
-680 -679
678 679 680
-681 -673
-681 -676
673 676 681
-682 -677
-682 -681
677 681 682
-683 9
-683 -623
-9 623 683
-684 10
-684 -623
-10 623 684
-685 11
-685 -623
-11 623 685
-686 12
-686 -623
-12 623 686
-687 594
-687 -683
-594 683 687
-688 -594
-688 683
594 -683 688
-689 -687
-689 -688
687 688 689
-690 594
-690 683
-594 -683 690
-691 595
-691 -684
-595 684 691
-692 -595
-692 684
595 -684 692
-693 -691
-693 -692
691 692 693
-694 595
-694 684
-595 -684 694
-695 -690
-695 -693
690 693 695
-696 690
-696 693
-690 -693 696
-697 -695
-697 -696
695 696 697
-698 690
-698 -693
-690 693 698
-699 -694
-699 -698
694 698 699
-700 685
-700 699
-685 -699 700
-701 -685
-701 -699
685 699 701
-702 -700
-702 -701
700 701 702
-703 685
-703 -699
-685 699 703
-704 686
-704 -703
-686 703 704
-705 -686
-705 703
686 -703 705
-706 -704
-706 -705
704 705 706
-707 686
-707 703
-686 -703 707
-708 9
-708 -654
-9 654 708
-709 10
-709 -654
-10 654 709
-710 11
-710 -654
-11 654 710
-711 12
-711 -654
-12 654 711
-712 -697
-712 -708
697 708 712
-713 697
-713 708
-697 -708 713
-714 -712
-714 -713
712 713 714
-715 -697
-715 708
697 -708 715
-716 -702
-716 -709
702 709 716
-717 702
-717 709
-702 -709 717
-718 -716
-718 -717
716 717 718
-719 -702
-719 709
702 -709 719
-720 -715
-720 -718
715 718 720
-721 715
-721 718
-715 -718 721
-722 -720
-722 -721
720 721 722
-723 715
-723 -718
-715 718 723
-724 -719
-724 -723
719 723 724
-725 -706
-725 -710
706 710 725
-726 706
-726 710
-706 -710 726
-727 -725
-727 -726
725 726 727
-728 -706
-728 710
706 -710 728
-729 724
-729 -727
-724 727 729
-730 -724
-730 727
724 -727 730
-731 -729
-731 -730
729 730 731
-732 -724
-732 -727
724 727 732
-733 -728
-733 -732
728 732 733
-734 707
-734 -711
-707 711 734
-735 -707
-735 711
707 -711 735
-736 -734
-736 -735
734 735 736
-737 707
-737 711
-707 -711 737
-738 733
-738 -736
-733 736 738
-739 -733
-739 736
733 -736 739
-740 -738
-740 -739
738 739 740
-741 -733
-741 -736
733 736 741
-742 -737
-742 -741
737 741 742
-743 9
-743 -662
-9 662 743
-744 10
-744 -662
-10 662 744
-745 11
-745 -662
-11 662 745
-746 12
-746 -662
-12 662 746
-747 -722
-747 -743
722 743 747
-748 722
-748 743
-722 -743 748
-749 -747
-749 -748
747 748 749
-750 -722
-750 743
722 -743 750
-751 -731
-751 -744
731 744 751
-752 731
-752 744
-731 -744 752
-753 -751
-753 -752
751 752 753
-754 -731
-754 744
731 -744 754
-755 -750
-755 -753
750 753 755
-756 750
-756 753
-750 -753 756
-757 -755
-757 -756
755 756 757
-758 750
-758 -753
-750 753 758
-759 -754
-759 -758
754 758 759
-760 -740
-760 -745
740 745 760
-761 740
-761 745
-740 -745 761
-762 -760
-762 -761
760 761 762
-763 -740
-763 745
740 -745 763
-764 759
-764 -762
-759 762 764
-765 -759
-765 762
759 -762 765
-766 -764
-766 -765
764 765 766
-767 -759
-767 -762
759 762 767
-768 -763
-768 -767
763 767 768
-769 -742
-769 -746
742 746 769
-770 742
-770 746
-742 -746 770
-771 -769
-771 -770
769 770 771
-772 -742
-772 746
742 -746 772
-773 768
-773 -771
-768 771 773
-774 -768
-774 771
768 -771 774
-775 -773
-775 -774
773 774 775
-776 -768
-776 -771
768 771 776
-777 -772
-777 -776
772 776 777
-778 9
-778 -671
-9 671 778
-779 10
-779 -671
-10 671 779
-780 11
-780 -671
-11 671 780
-781 12
-781 -671
-12 671 781
-782 -757
-782 -778
757 778 782
-783 757
-783 778
-757 -778 783
-784 -782
-784 -783
782 783 784
-785 -757
-785 778
757 -778 785
-786 -766
-786 -779
766 779 786
-787 766
-787 779
-766 -779 787
-788 -786
-788 -787
786 787 788
-789 -766
-789 779
766 -779 789
-790 -785
-790 -788
785 788 790
-791 785
-791 788
-785 -788 791
-792 -790
-792 -791
790 791 792
-793 785
-793 -788
-785 788 793
-794 -789
-794 -793
789 793 794
-795 -775
-795 -780
775 780 795
-796 775
-796 780
-775 -780 796
-797 -795
-797 -796
795 796 797
-798 -775
-798 780
775 -780 798
-799 794
-799 -797
-794 797 799
-800 -794
-800 797
794 -797 800
-801 -799
-801 -800
799 800 801
-802 -794
-802 -797
794 797 802
-803 -798
-803 -802
798 802 803
-804 -777
-804 -781
777 781 804
-805 777
-805 781
-777 -781 805
-806 -804
-806 -805
804 805 806
-807 -777
-807 781
777 -781 807
-808 803
-808 -806
-803 806 808
-809 -803
-809 806
803 -806 809
-810 -808
-810 -809
808 809 810
-811 -803
-811 -806
803 806 811
-812 -807
-812 -811
807 811 812
-813 9
-813 -680
-9 680 813
-814 10
-814 -680
-10 680 814
-815 11
-815 -680
-11 680 815
-816 12
-816 -680
-12 680 816
-817 -792
-817 -813
792 813 817
-818 792
-818 813
-792 -813 818
-819 -817
-819 -818
817 818 819
-820 -792
-820 813
792 -813 820
-821 -801
-821 -814
801 814 821
-822 801
-822 814
-801 -814 822
-823 -821
-823 -822
821 822 823
-824 -801
-824 814
801 -814 824
-825 -820
-825 -823
820 823 825
-826 820
-826 823
-820 -823 826
-827 -825
-827 -826
825 826 827
-828 820
-828 -823
-820 823 828
-829 -824
-829 -828
824 828 829
-830 -810
-830 -815
810 815 830
-831 810
-831 815
-810 -815 831
-832 -830
-832 -831
830 831 832
-833 -810
-833 815
810 -815 833
-834 829
-834 -832
-829 832 834
-835 -829
-835 832
829 -832 835
-836 -834
-836 -835
834 835 836
-837 -829
-837 -832
829 832 837
-838 -833
-838 -837
833 837 838
-839 -812
-839 -816
812 816 839
-840 812
-840 816
-812 -816 840
-841 -839
-841 -840
839 840 841
-842 -812
-842 816
812 -816 842
-843 838
-843 -841
-838 841 843
-844 -838
-844 841
838 -841 844
-845 -843
-845 -844
843 844 845
-846 -838
-846 -841
838 841 846
-847 -842
-847 -846
842 846 847
-848 9
-848 -682
-9 682 848
-849 10
-849 -682
-10 682 849
-850 11
-850 -682
-11 682 850
-851 12
-851 -682
-12 682 851
-852 -827
-852 -848
827 848 852
-853 827
-853 848
-827 -848 853
-854 -852
-854 -853
852 853 854
-855 -827
-855 848
827 -848 855
-856 -836
-856 -849
836 849 856
-857 836
-857 849
-836 -849 857
-858 -856
-858 -857
856 857 858
-859 -836
-859 849
836 -849 859
-860 -855
-860 -858
855 858 860
-861 855
-861 858
-855 -858 861
-862 -860
-862 -861
860 861 862
-863 855
-863 -858
-855 858 863
-864 -859
-864 -863
859 863 864
-865 -845
-865 -850
845 850 865
-866 845
-866 850
-845 -850 866
-867 -865
-867 -866
865 866 867
-868 -845
-868 850
845 -850 868
-869 864
-869 -867
-864 867 869
-870 -864
-870 867
864 -867 870
-871 -869
-871 -870
869 870 871
-872 -864
-872 -867
864 867 872
-873 -868
-873 -872
868 872 873
-874 -847
-874 -851
847 851 874
-875 847
-875 851
-847 -851 875
-876 -874
-876 -875
874 875 876
-877 -847
-877 851
847 -851 877
-878 873
-878 -876
-873 876 878
-879 -873
-879 876
873 -876 879
-880 -878
-880 -879
878 879 880
-881 -873
-881 -876
873 876 881
-882 -877
-882 -881
877 881 882
-883 1
-883 -5
-1 5 883
-884 -1
-884 5
1 -5 884
-885 -883
-885 -884
883 884 885
-886 1
-886 5
-1 -5 886
-887 13
-887 -303
-13 303 887
-888 -13
-888 303
13 -303 888
-889 -887
-889 -888
887 888 889
-890 13
-890 303
-13 -303 890
-891 -886
-891 -889
886 889 891
-892 886
-892 889
-886 -889 892
-893 -891
-893 -892
891 892 893
-894 886
-894 -889
-886 889 894
-895 -890
-895 -894
890 894 895
-896 -109
-896 399
109 -399 896
-897 109
-897 -399
-109 399 897
-898 -896
-898 -897
896 897 898
-899 -109
-899 -399
109 399 899
-900 895
-900 -898
-895 898 900
-901 -895
-901 898
895 -898 901
-902 -900
-902 -901
900 901 902
-903 -895
-903 -898
895 898 903
-904 -899
-904 -903
899 903 904
-905 -134
-905 424
134 -424 905
-906 134
-906 -424
-134 424 906
-907 -905
-907 -906
905 906 907
-908 -134
-908 -424
134 424 908
-909 904
-909 -907
-904 907 909
-910 -904
-910 907
904 -907 910
-911 -909
-911 -910
909 910 911
-912 -904
-912 -907
904 907 912
-913 -908
-913 -912
908 912 913
-914 -169
-914 459
169 -459 914
-915 169
-915 -459
-169 459 915
-916 -914
-916 -915
914 915 916
-917 -169
-917 -459
169 459 917
-918 913
-918 -916
-913 916 918
-919 -913
-919 916
913 -916 919
-920 -918
-920 -919
918 919 920
-921 -913
-921 -916
913 916 921
-922 -917
-922 -921
917 921 922
-923 -204
-923 494
204 -494 923
-924 204
-924 -494
-204 494 924
-925 -923
-925 -924
923 924 925
-926 -204
-926 -494
204 494 926
-927 922
-927 -925
-922 925 927
-928 -922
-928 925
922 -925 928
-929 -927
-929 -928
927 928 929
-930 -922
-930 -925
922 925 930
-931 -926
-931 -930
926 930 931
-932 -239
-932 529
239 -529 932
-933 239
-933 -529
-239 529 933
-934 -932
-934 -933
932 933 934
-935 -239
-935 -529
239 529 935
-936 931
-936 -934
-931 934 936
-937 -931
-937 934
931 -934 937
-938 -936
-938 -937
936 937 938
-939 -931
-939 -934
931 934 939
-940 -935
-940 -939
935 939 940
-941 -274
-941 564
274 -564 941
-942 274
-942 -564
-274 564 942
-943 -941
-943 -942
941 942 943
-944 -274
-944 -564
274 564 944
-945 940
-945 -943
-940 943 945
-946 -940
-946 943
940 -943 946
-947 -945
-947 -946
945 946 947
-948 -940
-948 -943
940 943 948
-949 -944
-949 -948
944 948 949
-950 -282
-950 572
282 -572 950
-951 282
-951 -572
-282 572 951
-952 -950
-952 -951
950 951 952
-953 -282
-953 -572
282 572 953
-954 949
-954 -952
-949 952 954
-955 -949
-955 952
949 -952 955
-956 -954
-956 -955
954 955 956
-957 -949
-957 -952
949 952 957
-958 -953
-958 -957
953 957 958
-959 -291
-959 581
291 -581 959
-960 291
-960 -581
-291 581 960
-961 -959
-961 -960
959 960 961
-962 -291
-962 -581
291 581 962
-963 958
-963 -961
-958 961 963
-964 -958
-964 961
958 -961 964
-965 -963
-965 -964
963 964 965
-966 -958
-966 -961
958 961 966
-967 -962
-967 -966
962 966 967
-968 -300
-968 590
300 -590 968
-969 300
-969 -590
-300 590 969
-970 -968
-970 -969
968 969 970
-971 -300
-971 -590
300 590 971
-972 967
-972 -970
-967 970 972
-973 -967
-973 970
967 -970 973
-974 -972
-974 -973
972 973 974
-975 -967
-975 -970
967 970 975
-976 -971
-976 -975
971 975 976
-977 -302
-977 592
302 -592 977
-978 302
-978 -592
-302 592 978
-979 -977
-979 -978
977 978 979
-980 -302
-980 -592
302 592 980
-981 976
-981 -979
-976 979 981
-982 -976
-982 979
976 -979 982
-983 -981
-983 -982
981 982 983
-984 -976
-984 -979
976 979 984
-985 -980
-985 -984
980 984 985
-986 9
-986 -885
-9 885 986
-987 -9
-987 885
9 -885 987
-988 -986
-988 -987
986 987 988
-989 593
-989 -893
-593 893 989
-990 -593
-990 893
593 -893 990
-991 -989
-991 -990
989 990 991
-992 -689
-992 -902
689 902 992
-993 689
-993 902
-689 -902 993
-994 -992
-994 -993
992 993 994
-995 -714
-995 -911
714 911 995
-996 714
-996 911
-714 -911 996
-997 -995
-997 -996
995 996 997
-998 -749
-998 -920
749 920 998
-999 749
-999 920
-749 -920 999
-1000 -998
-1000 -999
998 999 1000
-1001 -784
-1001 -929
784 929 1001
-1002 784
-1002 929
-784 -929 1002
-1003 -1001
-1003 -1002
1001 1002 1003
-1004 -819
-1004 -938
819 938 1004
-1005 819
-1005 938
-819 -938 1005
-1006 -1004
-1006 -1005
1004 1005 1006
-1007 -854
-1007 -947
854 947 1007
-1008 854
-1008 947
-854 -947 1008
-1009 -1007
-1009 -1008
1007 1008 1009
-1010 -862
-1010 -956
862 956 1010
-1011 862
-1011 956
-862 -956 1011
-1012 -1010
-1012 -1011
1010 1011 1012
-1013 -871
-1013 -965
871 965 1013
-1014 871
-1014 965
-871 -965 1014
-1015 -1013
-1015 -1014
1013 1014 1015
-1016 -880
-1016 -974
880 974 1016
-1017 880
-1017 974
-880 -974 1017
-1018 -1016
-1018 -1017
1016 1017 1018
-1019 -882
-1019 -983
882 983 1019
-1020 882
-1020 983
-882 -983 1020
-1021 -1019
-1021 -1020
1019 1020 1021
-1022 -988
-1022 -991
988 991 1022
-1023 -994
-1023 -997
994 997 1023
-1024 -1000
-1024 -1003
1000 1003 1024
-1025 -1006
-1025 -1009
1006 1009 1025
-1026 -1012
-1026 -1015
1012 1015 1026
-1027 -1018
-1027 -1021
1018 1021 1027
-1028 1022
-1028 1023
-1022 -1023 1028
-1029 1024
-1029 1025
-1024 -1025 1029
-1030 1026
-1030 1027
-1026 -1027 1030
-1031 1028
-1031 1029
-1028 -1029 1031
-1032 985
-1032 1030
-985 -1030 1032
-1033 1031
-1033 1032
-1031 -1032 1033
-1034 -1
-1034 -2
1 2 1034
-1035 -3
-1035 -4
3 4 1035
-1036 1034
-1036 1035
-1034 -1035 1036
-1037 -5
-1037 -6
5 6 1037
-1038 -7
-1038 -8
7 8 1038
-1039 1037
-1039 1038
-1037 -1038 1039
-1040 -9
-1040 -10
9 10 1040
-1041 -11
-1041 -12
11 12 1041
-1042 1040
-1042 1041
-1040 -1041 1042
-1043 -1036
-1043 -1039
1036 1039 1043
-1044 -1042
-1044 1043
1042 -1043 1044
-1045 1033
-1045 1044
-1033 -1044 1045
